c 8_3_checker_6cl.cnf
c
c field = 8
c formula set type = 3_checker_6cl
c
p cnf 6 16
8 
10 
12 
-7 
-4 
-16 
9 
11 
13 
-6 
-5 
-17 
8 
10 
12 
-17 
-6 
-18 
9 
11 
13 
-16 
-7 
-19 
10 
12 
16 
-9 
-6 
-18 
11 
13 
17 
-8 
-7 
-19 
10 
12 
16 
-19 
-8 
-20 
11 
13 
17 
-18 
-9 
-21 
12 
16 
18 
-11 
-8 
-20 
13 
17 
19 
-10 
-9 
-21 
12 
16 
18 
-21 
-10 
-22 
13 
17 
19 
-20 
-11 
-23 
16 
18 
20 
-13 
-10 
-22 
17 
19 
21 
-12 
-11 
-23 
16 
18 
20 
-23 
-12 
-24 
17 
19 
21 
-22 
-13 
-25 
